language ESSENCE' 1.0
letting initGrid be [
    [1, 2, 3, 3, 4],
[3, 3, 2, 1, 3],
[2, 4, 4, 3, 1],
[4, 1, 3, 4, 2],
[2, 3, 3, 5, 4],
[5, 2, 2, 1, 4]
    ]
letting goalBlocksRemaining be 4
letting noSteps be 15
